NAME 
ROWS
 N  OBJ
 L  R0      
 L  R1      
 L  R2      
 L  R3      
 E  R4      
COLUMNS
    MARKER    'MARKER'                 'INTORG'
    I0(5)     OBJ       -155
    I0(5)     R0        -74
    I0(5)     R1        -161
    I0(5)     R2        -93
    I0(5)     R3        -284
    I0(5)     R4        668
    I1(5)     OBJ       -311
    I1(5)     R0        -43
    I1(5)     R1        -459
    I1(5)     R2        -216
    I1(5)     R3        -629
    I1(5)     R4        587
    I2(5)     OBJ       -350
    I2(5)     R0        -836
    I2(5)     R1        -272
    I2(5)     R2        -928
    I2(5)     R3        -679
    I2(5)     R4        52
    I3(5)     OBJ       -293
    I3(5)     R0        -389
    I3(5)     R1        -307
    I3(5)     R2        -744
    I3(5)     R3        -945
    I3(5)     R4        926
    I4(5)     OBJ       -241
    I4(5)     R0        -88
    I4(5)     R1        -168
    I4(5)     R2        -728
    I4(5)     R3        -618
    I4(5)     R4        128
    I5(5)     OBJ       -390
    I5(5)     R0        -36
    I5(5)     R1        -55
    I5(5)     R2        -249
    I5(5)     R3        -645
    I5(5)     R4        606
    I6(5)     OBJ       -517
    I6(5)     R0        -787
    I6(5)     R1        -113
    I6(5)     R2        -635
    I6(5)     R3        -693
    I6(5)     R4        353
    I7(5)     OBJ       -276
    I7(5)     R0        -305
    I7(5)     R1        -48
    I7(5)     R2        -630
    I7(5)     R3        -643
    I7(5)     R4        725
    I8(5)     OBJ       -739
    I8(5)     R0        -875
    I8(5)     R1        -505
    I8(5)     R2        -87
    I8(5)     R3        -397
    I8(5)     R4        272
    I9(5)     OBJ       -323
    I9(5)     R0        -341
    I9(5)     R1        -618
    I9(5)     R2        -801
    I9(5)     R3        -745
    I9(5)     R4        826
    I10(5)    OBJ       -293
    I10(5)    R0        -164
    I10(5)    R1        -155
    I10(5)    R2        -271
    I10(5)    R3        -542
    I10(5)    R4        825
    I11(5)    OBJ       -631
    I11(5)    R0        -29
    I11(5)    R1        -578
    I11(5)    R2        -248
    I11(5)    R3        -490
    I11(5)    R4        556
    I12(5)    OBJ       -147
    I12(5)    R0        -651
    I12(5)    R1        -661
    I12(5)    R2        -259
    I12(5)    R3        -960
    I12(5)    R4        454
    I13(5)    OBJ       -710
    I13(5)    R0        -513
    I13(5)    R1        -990
    I13(5)    R2        -542
    I13(5)    R3        -469
    I13(5)    R4        503
    I14(5)    OBJ       -784
    I14(5)    R0        -322
    I14(5)    R1        -967
    I14(5)    R2        -554
    I14(5)    R3        -233
    I14(5)    R4        500
    I15(5)    OBJ       -806
    I15(5)    R0        -892
    I15(5)    R1        -748
    I15(5)    R2        -427
    I15(5)    R3        -687
    I15(5)    R4        72
    I16(5)    OBJ       -881
    I16(5)    R0        -903
    I16(5)    R1        -25
    I16(5)    R2        -597
    I16(5)    R3        -718
    I16(5)    R4        148
    I17(5)    OBJ       -450
    I17(5)    R0        -838
    I17(5)    R1        -753
    I17(5)    R2        -667
    I17(5)    R3        -867
    I17(5)    R4        192
    I18(5)    OBJ       -506
    I18(5)    R0        -167
    I18(5)    R1        -52
    I18(5)    R2        -474
    I18(5)    R3        -316
    I18(5)    R4        715
    I19(5)    OBJ       -107
    I19(5)    R0        -641
    I19(5)    R1        -899
    I19(5)    R2        -101
    I19(5)    R3        -805
    I19(5)    R4        544
    I20(1)    R4        1
    MARKER    'MARKER'                 'INTEND'
RHS
    RHS1      R0        -6329
    RHS1      R1        -5685
    RHS1      R2        -6352
    RHS1      R3        -7441
    RHS1      R4        4826
BOUNDS
 UP BND1      I0(5)     1
 UP BND1      I1(5)     1
 UP BND1      I2(5)     1
 UP BND1      I3(5)     1
 UP BND1      I4(5)     1
 UP BND1      I5(5)     1
 UP BND1      I6(5)     1
 UP BND1      I7(5)     1
 UP BND1      I8(5)     1
 UP BND1      I9(5)     1
 UP BND1      I10(5)    1
 UP BND1      I11(5)    1
 UP BND1      I12(5)    1
 UP BND1      I13(5)    1
 UP BND1      I14(5)    1
 UP BND1      I15(5)    1
 UP BND1      I16(5)    1
 UP BND1      I17(5)    1
 UP BND1      I18(5)    1
 UP BND1      I19(5)    1
 LI BND1      I20(1)    0
ENDATA
